1898
440
2250
270
1414
3100
465
3080
615
497
1160
422
510
118
479
440
490
330
110
560
2435
2885
1174
455
750
3720
195
1050 
1898
440
2250
270
1414
3100
465
3080
615
497
1160
422
510
118
479
440
490
330
110
560
2435
2885
1174
455
750
3720
195
1050 
1898
440
2250
270

12000
15000
18000
21000
24000 
12000
15000
18000
21000
24000 

400 
500 
600 
700 
800 
400 
500 
600 
700 
800 

3600 

30
20
125
5
80
25
35
73
12
15
15
40
5
10
10
12
10
9
10
20
60
40
50
36
49
40
19
150 
30
20
125
5
80
25
35
73
12
15
15
40
5
10
10
12
10
9
10
20
60
40
50
36
49
40
19
150 
30
20
125
5